c ind 10 13 15 24 25 27 29 31 34 41 0
c ind 5 6 9 0
p cnf 51 143
-1 -2 11 0
-1 2 40 0
-11 -12 14 0
-11 12 16 0
-12 -13 9 0
-12 -9 13 0
-14 -13 15 0
-14 -15 13 0
-16 -17 19 0
-16 17 40 0
-17 18 0
-17 3 0
-18 -13 5 0
-18 -5 13 0
-19 -20 32 0
-19 20 42 0
-2 3 7 0
-20 21 0
-20 30 0
-21 22 0
-21 28 0
-22 23 0
-22 26 0
-23 -24 25 0
-23 -25 24 0
-25 0
-26 -25 27 0
-26 -27 25 0
-28 -25 29 0
-28 -29 25 0
-3 -4 0
-30 -25 31 0
-30 -31 25 0
-32 -33 35 0
-32 33 40 0
-33 -13 34 0
-33 -34 13 0
-35 36 0
-35 39 0
-36 37 0
-36 39 0
-37 38 0
-37 39 0
-38 -15 25 0
-38 -25 15 0
-39 -25 25 0
-4 -5 6 0
-4 -6 5 0
-40 -15 41 0
-40 -41 15 0
-42 -43 35 0
-42 43 47 0
-43 30 0
-43 44 0
-44 28 0
-44 45 0
-45 26 0
-45 46 0
-46 -13 24 0
-46 -24 13 0
-47 -48 14 0
-47 48 40 0
-48 30 0
-48 49 0
-49 28 0
-49 50 0
-50 23 0
-50 51 0
-51 -13 27 0
-51 -27 13 0
-7 -8 0
-8 -10 9 0
-8 -9 10 0
1 -11 -40 0
1 -2 -11 0
1 0
1 2 -40 0
11 -12 -14 0
11 -14 -16 0
11 12 -16 0
12 -9 -13 0
12 9 13 0
13 0
14 -15 -13 0
14 15 13 0
16 -17 -19 0
16 -19 -40 0
16 17 -40 0
17 -3 -18 0
18 -5 -13 0
18 5 13 0
19 -20 -32 0
19 -32 -42 0
19 20 -42 0
2 -3 0
2 -7 0
20 -21 -30 0
21 -22 -28 0
22 -23 -26 0
23 -24 -25 0
23 24 25 0
26 -27 -25 0
26 27 25 0
28 -29 -25 0
28 29 25 0
3 4 0
30 -31 -25 0
30 31 25 0
32 -33 -35 0
32 -35 -40 0
32 33 -40 0
33 -34 -13 0
33 34 13 0
35 -36 -39 0
36 -37 -39 0
37 -38 -39 0
38 -15 -25 0
38 15 25 0
39 -25 -25 0
39 25 25 0
4 -5 -6 0
4 5 6 0
40 -15 -41 0
40 15 41 0
42 -35 -47 0
42 -43 -35 0
42 43 -47 0
43 -44 -30 0
44 -45 -28 0
45 -46 -26 0
46 -24 -13 0
46 24 13 0
47 -14 -40 0
47 -48 -14 0
47 48 -40 0
48 -49 -30 0
49 -50 -28 0
50 -23 -51 0
51 -27 -13 0
51 27 13 0
7 8 0
8 -9 -10 0
8 9 10 0
